c *********************************
c * Circuit generated by BenCGen
c *
c * RippleCarryAdder_150_150_150_InOutT
c *
c * Ports with 1 gate(s): 1
c * Ports with 2 gate(s): 751
c * Total gates: 752
c *********************************
p cnf 1052 2555
1 453 0
-1 -453 0
1 -452 0
453 -452 0
-1 -453 452 0
1 151 -455 0
-1 151 455 0
1 -151 455 0
-1 -151 -455 0
455 452 -301 0
-455 452 301 0
455 -452 301 0
-455 -452 -301 0
452 -456 0
455 -456 0
-452 -455 456 0
151 -457 0
1 -457 0
-151 -1 457 0
-456 454 0
-457 454 0
456 457 -454 0
2 152 -459 0
-2 152 459 0
2 -152 459 0
-2 -152 -459 0
459 454 -302 0
-459 454 302 0
459 -454 302 0
-459 -454 -302 0
454 -460 0
459 -460 0
-454 -459 460 0
152 -461 0
2 -461 0
-152 -2 461 0
-460 458 0
-461 458 0
460 461 -458 0
3 153 -463 0
-3 153 463 0
3 -153 463 0
-3 -153 -463 0
463 458 -303 0
-463 458 303 0
463 -458 303 0
-463 -458 -303 0
458 -464 0
463 -464 0
-458 -463 464 0
153 -465 0
3 -465 0
-153 -3 465 0
-464 462 0
-465 462 0
464 465 -462 0
4 154 -467 0
-4 154 467 0
4 -154 467 0
-4 -154 -467 0
467 462 -304 0
-467 462 304 0
467 -462 304 0
-467 -462 -304 0
462 -468 0
467 -468 0
-462 -467 468 0
154 -469 0
4 -469 0
-154 -4 469 0
-468 466 0
-469 466 0
468 469 -466 0
5 155 -471 0
-5 155 471 0
5 -155 471 0
-5 -155 -471 0
471 466 -305 0
-471 466 305 0
471 -466 305 0
-471 -466 -305 0
466 -472 0
471 -472 0
-466 -471 472 0
155 -473 0
5 -473 0
-155 -5 473 0
-472 470 0
-473 470 0
472 473 -470 0
6 156 -475 0
-6 156 475 0
6 -156 475 0
-6 -156 -475 0
475 470 -306 0
-475 470 306 0
475 -470 306 0
-475 -470 -306 0
470 -476 0
475 -476 0
-470 -475 476 0
156 -477 0
6 -477 0
-156 -6 477 0
-476 474 0
-477 474 0
476 477 -474 0
7 157 -479 0
-7 157 479 0
7 -157 479 0
-7 -157 -479 0
479 474 -307 0
-479 474 307 0
479 -474 307 0
-479 -474 -307 0
474 -480 0
479 -480 0
-474 -479 480 0
157 -481 0
7 -481 0
-157 -7 481 0
-480 478 0
-481 478 0
480 481 -478 0
8 158 -483 0
-8 158 483 0
8 -158 483 0
-8 -158 -483 0
483 478 -308 0
-483 478 308 0
483 -478 308 0
-483 -478 -308 0
478 -484 0
483 -484 0
-478 -483 484 0
158 -485 0
8 -485 0
-158 -8 485 0
-484 482 0
-485 482 0
484 485 -482 0
9 159 -487 0
-9 159 487 0
9 -159 487 0
-9 -159 -487 0
487 482 -309 0
-487 482 309 0
487 -482 309 0
-487 -482 -309 0
482 -488 0
487 -488 0
-482 -487 488 0
159 -489 0
9 -489 0
-159 -9 489 0
-488 486 0
-489 486 0
488 489 -486 0
10 160 -491 0
-10 160 491 0
10 -160 491 0
-10 -160 -491 0
491 486 -310 0
-491 486 310 0
491 -486 310 0
-491 -486 -310 0
486 -492 0
491 -492 0
-486 -491 492 0
160 -493 0
10 -493 0
-160 -10 493 0
-492 490 0
-493 490 0
492 493 -490 0
11 161 -495 0
-11 161 495 0
11 -161 495 0
-11 -161 -495 0
495 490 -311 0
-495 490 311 0
495 -490 311 0
-495 -490 -311 0
490 -496 0
495 -496 0
-490 -495 496 0
161 -497 0
11 -497 0
-161 -11 497 0
-496 494 0
-497 494 0
496 497 -494 0
12 162 -499 0
-12 162 499 0
12 -162 499 0
-12 -162 -499 0
499 494 -312 0
-499 494 312 0
499 -494 312 0
-499 -494 -312 0
494 -500 0
499 -500 0
-494 -499 500 0
162 -501 0
12 -501 0
-162 -12 501 0
-500 498 0
-501 498 0
500 501 -498 0
13 163 -503 0
-13 163 503 0
13 -163 503 0
-13 -163 -503 0
503 498 -313 0
-503 498 313 0
503 -498 313 0
-503 -498 -313 0
498 -504 0
503 -504 0
-498 -503 504 0
163 -505 0
13 -505 0
-163 -13 505 0
-504 502 0
-505 502 0
504 505 -502 0
14 164 -507 0
-14 164 507 0
14 -164 507 0
-14 -164 -507 0
507 502 -314 0
-507 502 314 0
507 -502 314 0
-507 -502 -314 0
502 -508 0
507 -508 0
-502 -507 508 0
164 -509 0
14 -509 0
-164 -14 509 0
-508 506 0
-509 506 0
508 509 -506 0
15 165 -511 0
-15 165 511 0
15 -165 511 0
-15 -165 -511 0
511 506 -315 0
-511 506 315 0
511 -506 315 0
-511 -506 -315 0
506 -512 0
511 -512 0
-506 -511 512 0
165 -513 0
15 -513 0
-165 -15 513 0
-512 510 0
-513 510 0
512 513 -510 0
16 166 -515 0
-16 166 515 0
16 -166 515 0
-16 -166 -515 0
515 510 -316 0
-515 510 316 0
515 -510 316 0
-515 -510 -316 0
510 -516 0
515 -516 0
-510 -515 516 0
166 -517 0
16 -517 0
-166 -16 517 0
-516 514 0
-517 514 0
516 517 -514 0
17 167 -519 0
-17 167 519 0
17 -167 519 0
-17 -167 -519 0
519 514 -317 0
-519 514 317 0
519 -514 317 0
-519 -514 -317 0
514 -520 0
519 -520 0
-514 -519 520 0
167 -521 0
17 -521 0
-167 -17 521 0
-520 518 0
-521 518 0
520 521 -518 0
18 168 -523 0
-18 168 523 0
18 -168 523 0
-18 -168 -523 0
523 518 -318 0
-523 518 318 0
523 -518 318 0
-523 -518 -318 0
518 -524 0
523 -524 0
-518 -523 524 0
168 -525 0
18 -525 0
-168 -18 525 0
-524 522 0
-525 522 0
524 525 -522 0
19 169 -527 0
-19 169 527 0
19 -169 527 0
-19 -169 -527 0
527 522 -319 0
-527 522 319 0
527 -522 319 0
-527 -522 -319 0
522 -528 0
527 -528 0
-522 -527 528 0
169 -529 0
19 -529 0
-169 -19 529 0
-528 526 0
-529 526 0
528 529 -526 0
20 170 -531 0
-20 170 531 0
20 -170 531 0
-20 -170 -531 0
531 526 -320 0
-531 526 320 0
531 -526 320 0
-531 -526 -320 0
526 -532 0
531 -532 0
-526 -531 532 0
170 -533 0
20 -533 0
-170 -20 533 0
-532 530 0
-533 530 0
532 533 -530 0
21 171 -535 0
-21 171 535 0
21 -171 535 0
-21 -171 -535 0
535 530 -321 0
-535 530 321 0
535 -530 321 0
-535 -530 -321 0
530 -536 0
535 -536 0
-530 -535 536 0
171 -537 0
21 -537 0
-171 -21 537 0
-536 534 0
-537 534 0
536 537 -534 0
22 172 -539 0
-22 172 539 0
22 -172 539 0
-22 -172 -539 0
539 534 -322 0
-539 534 322 0
539 -534 322 0
-539 -534 -322 0
534 -540 0
539 -540 0
-534 -539 540 0
172 -541 0
22 -541 0
-172 -22 541 0
-540 538 0
-541 538 0
540 541 -538 0
23 173 -543 0
-23 173 543 0
23 -173 543 0
-23 -173 -543 0
543 538 -323 0
-543 538 323 0
543 -538 323 0
-543 -538 -323 0
538 -544 0
543 -544 0
-538 -543 544 0
173 -545 0
23 -545 0
-173 -23 545 0
-544 542 0
-545 542 0
544 545 -542 0
24 174 -547 0
-24 174 547 0
24 -174 547 0
-24 -174 -547 0
547 542 -324 0
-547 542 324 0
547 -542 324 0
-547 -542 -324 0
542 -548 0
547 -548 0
-542 -547 548 0
174 -549 0
24 -549 0
-174 -24 549 0
-548 546 0
-549 546 0
548 549 -546 0
25 175 -551 0
-25 175 551 0
25 -175 551 0
-25 -175 -551 0
551 546 -325 0
-551 546 325 0
551 -546 325 0
-551 -546 -325 0
546 -552 0
551 -552 0
-546 -551 552 0
175 -553 0
25 -553 0
-175 -25 553 0
-552 550 0
-553 550 0
552 553 -550 0
26 176 -555 0
-26 176 555 0
26 -176 555 0
-26 -176 -555 0
555 550 -326 0
-555 550 326 0
555 -550 326 0
-555 -550 -326 0
550 -556 0
555 -556 0
-550 -555 556 0
176 -557 0
26 -557 0
-176 -26 557 0
-556 554 0
-557 554 0
556 557 -554 0
27 177 -559 0
-27 177 559 0
27 -177 559 0
-27 -177 -559 0
559 554 -327 0
-559 554 327 0
559 -554 327 0
-559 -554 -327 0
554 -560 0
559 -560 0
-554 -559 560 0
177 -561 0
27 -561 0
-177 -27 561 0
-560 558 0
-561 558 0
560 561 -558 0
28 178 -563 0
-28 178 563 0
28 -178 563 0
-28 -178 -563 0
563 558 -328 0
-563 558 328 0
563 -558 328 0
-563 -558 -328 0
558 -564 0
563 -564 0
-558 -563 564 0
178 -565 0
28 -565 0
-178 -28 565 0
-564 562 0
-565 562 0
564 565 -562 0
29 179 -567 0
-29 179 567 0
29 -179 567 0
-29 -179 -567 0
567 562 -329 0
-567 562 329 0
567 -562 329 0
-567 -562 -329 0
562 -568 0
567 -568 0
-562 -567 568 0
179 -569 0
29 -569 0
-179 -29 569 0
-568 566 0
-569 566 0
568 569 -566 0
30 180 -571 0
-30 180 571 0
30 -180 571 0
-30 -180 -571 0
571 566 -330 0
-571 566 330 0
571 -566 330 0
-571 -566 -330 0
566 -572 0
571 -572 0
-566 -571 572 0
180 -573 0
30 -573 0
-180 -30 573 0
-572 570 0
-573 570 0
572 573 -570 0
31 181 -575 0
-31 181 575 0
31 -181 575 0
-31 -181 -575 0
575 570 -331 0
-575 570 331 0
575 -570 331 0
-575 -570 -331 0
570 -576 0
575 -576 0
-570 -575 576 0
181 -577 0
31 -577 0
-181 -31 577 0
-576 574 0
-577 574 0
576 577 -574 0
32 182 -579 0
-32 182 579 0
32 -182 579 0
-32 -182 -579 0
579 574 -332 0
-579 574 332 0
579 -574 332 0
-579 -574 -332 0
574 -580 0
579 -580 0
-574 -579 580 0
182 -581 0
32 -581 0
-182 -32 581 0
-580 578 0
-581 578 0
580 581 -578 0
33 183 -583 0
-33 183 583 0
33 -183 583 0
-33 -183 -583 0
583 578 -333 0
-583 578 333 0
583 -578 333 0
-583 -578 -333 0
578 -584 0
583 -584 0
-578 -583 584 0
183 -585 0
33 -585 0
-183 -33 585 0
-584 582 0
-585 582 0
584 585 -582 0
34 184 -587 0
-34 184 587 0
34 -184 587 0
-34 -184 -587 0
587 582 -334 0
-587 582 334 0
587 -582 334 0
-587 -582 -334 0
582 -588 0
587 -588 0
-582 -587 588 0
184 -589 0
34 -589 0
-184 -34 589 0
-588 586 0
-589 586 0
588 589 -586 0
35 185 -591 0
-35 185 591 0
35 -185 591 0
-35 -185 -591 0
591 586 -335 0
-591 586 335 0
591 -586 335 0
-591 -586 -335 0
586 -592 0
591 -592 0
-586 -591 592 0
185 -593 0
35 -593 0
-185 -35 593 0
-592 590 0
-593 590 0
592 593 -590 0
36 186 -595 0
-36 186 595 0
36 -186 595 0
-36 -186 -595 0
595 590 -336 0
-595 590 336 0
595 -590 336 0
-595 -590 -336 0
590 -596 0
595 -596 0
-590 -595 596 0
186 -597 0
36 -597 0
-186 -36 597 0
-596 594 0
-597 594 0
596 597 -594 0
37 187 -599 0
-37 187 599 0
37 -187 599 0
-37 -187 -599 0
599 594 -337 0
-599 594 337 0
599 -594 337 0
-599 -594 -337 0
594 -600 0
599 -600 0
-594 -599 600 0
187 -601 0
37 -601 0
-187 -37 601 0
-600 598 0
-601 598 0
600 601 -598 0
38 188 -603 0
-38 188 603 0
38 -188 603 0
-38 -188 -603 0
603 598 -338 0
-603 598 338 0
603 -598 338 0
-603 -598 -338 0
598 -604 0
603 -604 0
-598 -603 604 0
188 -605 0
38 -605 0
-188 -38 605 0
-604 602 0
-605 602 0
604 605 -602 0
39 189 -607 0
-39 189 607 0
39 -189 607 0
-39 -189 -607 0
607 602 -339 0
-607 602 339 0
607 -602 339 0
-607 -602 -339 0
602 -608 0
607 -608 0
-602 -607 608 0
189 -609 0
39 -609 0
-189 -39 609 0
-608 606 0
-609 606 0
608 609 -606 0
40 190 -611 0
-40 190 611 0
40 -190 611 0
-40 -190 -611 0
611 606 -340 0
-611 606 340 0
611 -606 340 0
-611 -606 -340 0
606 -612 0
611 -612 0
-606 -611 612 0
190 -613 0
40 -613 0
-190 -40 613 0
-612 610 0
-613 610 0
612 613 -610 0
41 191 -615 0
-41 191 615 0
41 -191 615 0
-41 -191 -615 0
615 610 -341 0
-615 610 341 0
615 -610 341 0
-615 -610 -341 0
610 -616 0
615 -616 0
-610 -615 616 0
191 -617 0
41 -617 0
-191 -41 617 0
-616 614 0
-617 614 0
616 617 -614 0
42 192 -619 0
-42 192 619 0
42 -192 619 0
-42 -192 -619 0
619 614 -342 0
-619 614 342 0
619 -614 342 0
-619 -614 -342 0
614 -620 0
619 -620 0
-614 -619 620 0
192 -621 0
42 -621 0
-192 -42 621 0
-620 618 0
-621 618 0
620 621 -618 0
43 193 -623 0
-43 193 623 0
43 -193 623 0
-43 -193 -623 0
623 618 -343 0
-623 618 343 0
623 -618 343 0
-623 -618 -343 0
618 -624 0
623 -624 0
-618 -623 624 0
193 -625 0
43 -625 0
-193 -43 625 0
-624 622 0
-625 622 0
624 625 -622 0
44 194 -627 0
-44 194 627 0
44 -194 627 0
-44 -194 -627 0
627 622 -344 0
-627 622 344 0
627 -622 344 0
-627 -622 -344 0
622 -628 0
627 -628 0
-622 -627 628 0
194 -629 0
44 -629 0
-194 -44 629 0
-628 626 0
-629 626 0
628 629 -626 0
45 195 -631 0
-45 195 631 0
45 -195 631 0
-45 -195 -631 0
631 626 -345 0
-631 626 345 0
631 -626 345 0
-631 -626 -345 0
626 -632 0
631 -632 0
-626 -631 632 0
195 -633 0
45 -633 0
-195 -45 633 0
-632 630 0
-633 630 0
632 633 -630 0
46 196 -635 0
-46 196 635 0
46 -196 635 0
-46 -196 -635 0
635 630 -346 0
-635 630 346 0
635 -630 346 0
-635 -630 -346 0
630 -636 0
635 -636 0
-630 -635 636 0
196 -637 0
46 -637 0
-196 -46 637 0
-636 634 0
-637 634 0
636 637 -634 0
47 197 -639 0
-47 197 639 0
47 -197 639 0
-47 -197 -639 0
639 634 -347 0
-639 634 347 0
639 -634 347 0
-639 -634 -347 0
634 -640 0
639 -640 0
-634 -639 640 0
197 -641 0
47 -641 0
-197 -47 641 0
-640 638 0
-641 638 0
640 641 -638 0
48 198 -643 0
-48 198 643 0
48 -198 643 0
-48 -198 -643 0
643 638 -348 0
-643 638 348 0
643 -638 348 0
-643 -638 -348 0
638 -644 0
643 -644 0
-638 -643 644 0
198 -645 0
48 -645 0
-198 -48 645 0
-644 642 0
-645 642 0
644 645 -642 0
49 199 -647 0
-49 199 647 0
49 -199 647 0
-49 -199 -647 0
647 642 -349 0
-647 642 349 0
647 -642 349 0
-647 -642 -349 0
642 -648 0
647 -648 0
-642 -647 648 0
199 -649 0
49 -649 0
-199 -49 649 0
-648 646 0
-649 646 0
648 649 -646 0
50 200 -651 0
-50 200 651 0
50 -200 651 0
-50 -200 -651 0
651 646 -350 0
-651 646 350 0
651 -646 350 0
-651 -646 -350 0
646 -652 0
651 -652 0
-646 -651 652 0
200 -653 0
50 -653 0
-200 -50 653 0
-652 650 0
-653 650 0
652 653 -650 0
51 201 -655 0
-51 201 655 0
51 -201 655 0
-51 -201 -655 0
655 650 -351 0
-655 650 351 0
655 -650 351 0
-655 -650 -351 0
650 -656 0
655 -656 0
-650 -655 656 0
201 -657 0
51 -657 0
-201 -51 657 0
-656 654 0
-657 654 0
656 657 -654 0
52 202 -659 0
-52 202 659 0
52 -202 659 0
-52 -202 -659 0
659 654 -352 0
-659 654 352 0
659 -654 352 0
-659 -654 -352 0
654 -660 0
659 -660 0
-654 -659 660 0
202 -661 0
52 -661 0
-202 -52 661 0
-660 658 0
-661 658 0
660 661 -658 0
53 203 -663 0
-53 203 663 0
53 -203 663 0
-53 -203 -663 0
663 658 -353 0
-663 658 353 0
663 -658 353 0
-663 -658 -353 0
658 -664 0
663 -664 0
-658 -663 664 0
203 -665 0
53 -665 0
-203 -53 665 0
-664 662 0
-665 662 0
664 665 -662 0
54 204 -667 0
-54 204 667 0
54 -204 667 0
-54 -204 -667 0
667 662 -354 0
-667 662 354 0
667 -662 354 0
-667 -662 -354 0
662 -668 0
667 -668 0
-662 -667 668 0
204 -669 0
54 -669 0
-204 -54 669 0
-668 666 0
-669 666 0
668 669 -666 0
55 205 -671 0
-55 205 671 0
55 -205 671 0
-55 -205 -671 0
671 666 -355 0
-671 666 355 0
671 -666 355 0
-671 -666 -355 0
666 -672 0
671 -672 0
-666 -671 672 0
205 -673 0
55 -673 0
-205 -55 673 0
-672 670 0
-673 670 0
672 673 -670 0
56 206 -675 0
-56 206 675 0
56 -206 675 0
-56 -206 -675 0
675 670 -356 0
-675 670 356 0
675 -670 356 0
-675 -670 -356 0
670 -676 0
675 -676 0
-670 -675 676 0
206 -677 0
56 -677 0
-206 -56 677 0
-676 674 0
-677 674 0
676 677 -674 0
57 207 -679 0
-57 207 679 0
57 -207 679 0
-57 -207 -679 0
679 674 -357 0
-679 674 357 0
679 -674 357 0
-679 -674 -357 0
674 -680 0
679 -680 0
-674 -679 680 0
207 -681 0
57 -681 0
-207 -57 681 0
-680 678 0
-681 678 0
680 681 -678 0
58 208 -683 0
-58 208 683 0
58 -208 683 0
-58 -208 -683 0
683 678 -358 0
-683 678 358 0
683 -678 358 0
-683 -678 -358 0
678 -684 0
683 -684 0
-678 -683 684 0
208 -685 0
58 -685 0
-208 -58 685 0
-684 682 0
-685 682 0
684 685 -682 0
59 209 -687 0
-59 209 687 0
59 -209 687 0
-59 -209 -687 0
687 682 -359 0
-687 682 359 0
687 -682 359 0
-687 -682 -359 0
682 -688 0
687 -688 0
-682 -687 688 0
209 -689 0
59 -689 0
-209 -59 689 0
-688 686 0
-689 686 0
688 689 -686 0
60 210 -691 0
-60 210 691 0
60 -210 691 0
-60 -210 -691 0
691 686 -360 0
-691 686 360 0
691 -686 360 0
-691 -686 -360 0
686 -692 0
691 -692 0
-686 -691 692 0
210 -693 0
60 -693 0
-210 -60 693 0
-692 690 0
-693 690 0
692 693 -690 0
61 211 -695 0
-61 211 695 0
61 -211 695 0
-61 -211 -695 0
695 690 -361 0
-695 690 361 0
695 -690 361 0
-695 -690 -361 0
690 -696 0
695 -696 0
-690 -695 696 0
211 -697 0
61 -697 0
-211 -61 697 0
-696 694 0
-697 694 0
696 697 -694 0
62 212 -699 0
-62 212 699 0
62 -212 699 0
-62 -212 -699 0
699 694 -362 0
-699 694 362 0
699 -694 362 0
-699 -694 -362 0
694 -700 0
699 -700 0
-694 -699 700 0
212 -701 0
62 -701 0
-212 -62 701 0
-700 698 0
-701 698 0
700 701 -698 0
63 213 -703 0
-63 213 703 0
63 -213 703 0
-63 -213 -703 0
703 698 -363 0
-703 698 363 0
703 -698 363 0
-703 -698 -363 0
698 -704 0
703 -704 0
-698 -703 704 0
213 -705 0
63 -705 0
-213 -63 705 0
-704 702 0
-705 702 0
704 705 -702 0
64 214 -707 0
-64 214 707 0
64 -214 707 0
-64 -214 -707 0
707 702 -364 0
-707 702 364 0
707 -702 364 0
-707 -702 -364 0
702 -708 0
707 -708 0
-702 -707 708 0
214 -709 0
64 -709 0
-214 -64 709 0
-708 706 0
-709 706 0
708 709 -706 0
65 215 -711 0
-65 215 711 0
65 -215 711 0
-65 -215 -711 0
711 706 -365 0
-711 706 365 0
711 -706 365 0
-711 -706 -365 0
706 -712 0
711 -712 0
-706 -711 712 0
215 -713 0
65 -713 0
-215 -65 713 0
-712 710 0
-713 710 0
712 713 -710 0
66 216 -715 0
-66 216 715 0
66 -216 715 0
-66 -216 -715 0
715 710 -366 0
-715 710 366 0
715 -710 366 0
-715 -710 -366 0
710 -716 0
715 -716 0
-710 -715 716 0
216 -717 0
66 -717 0
-216 -66 717 0
-716 714 0
-717 714 0
716 717 -714 0
67 217 -719 0
-67 217 719 0
67 -217 719 0
-67 -217 -719 0
719 714 -367 0
-719 714 367 0
719 -714 367 0
-719 -714 -367 0
714 -720 0
719 -720 0
-714 -719 720 0
217 -721 0
67 -721 0
-217 -67 721 0
-720 718 0
-721 718 0
720 721 -718 0
68 218 -723 0
-68 218 723 0
68 -218 723 0
-68 -218 -723 0
723 718 -368 0
-723 718 368 0
723 -718 368 0
-723 -718 -368 0
718 -724 0
723 -724 0
-718 -723 724 0
218 -725 0
68 -725 0
-218 -68 725 0
-724 722 0
-725 722 0
724 725 -722 0
69 219 -727 0
-69 219 727 0
69 -219 727 0
-69 -219 -727 0
727 722 -369 0
-727 722 369 0
727 -722 369 0
-727 -722 -369 0
722 -728 0
727 -728 0
-722 -727 728 0
219 -729 0
69 -729 0
-219 -69 729 0
-728 726 0
-729 726 0
728 729 -726 0
70 220 -731 0
-70 220 731 0
70 -220 731 0
-70 -220 -731 0
731 726 -370 0
-731 726 370 0
731 -726 370 0
-731 -726 -370 0
726 -732 0
731 -732 0
-726 -731 732 0
220 -733 0
70 -733 0
-220 -70 733 0
-732 730 0
-733 730 0
732 733 -730 0
71 221 -735 0
-71 221 735 0
71 -221 735 0
-71 -221 -735 0
735 730 -371 0
-735 730 371 0
735 -730 371 0
-735 -730 -371 0
730 -736 0
735 -736 0
-730 -735 736 0
221 -737 0
71 -737 0
-221 -71 737 0
-736 734 0
-737 734 0
736 737 -734 0
72 222 -739 0
-72 222 739 0
72 -222 739 0
-72 -222 -739 0
739 734 -372 0
-739 734 372 0
739 -734 372 0
-739 -734 -372 0
734 -740 0
739 -740 0
-734 -739 740 0
222 -741 0
72 -741 0
-222 -72 741 0
-740 738 0
-741 738 0
740 741 -738 0
73 223 -743 0
-73 223 743 0
73 -223 743 0
-73 -223 -743 0
743 738 -373 0
-743 738 373 0
743 -738 373 0
-743 -738 -373 0
738 -744 0
743 -744 0
-738 -743 744 0
223 -745 0
73 -745 0
-223 -73 745 0
-744 742 0
-745 742 0
744 745 -742 0
74 224 -747 0
-74 224 747 0
74 -224 747 0
-74 -224 -747 0
747 742 -374 0
-747 742 374 0
747 -742 374 0
-747 -742 -374 0
742 -748 0
747 -748 0
-742 -747 748 0
224 -749 0
74 -749 0
-224 -74 749 0
-748 746 0
-749 746 0
748 749 -746 0
75 225 -751 0
-75 225 751 0
75 -225 751 0
-75 -225 -751 0
751 746 -375 0
-751 746 375 0
751 -746 375 0
-751 -746 -375 0
746 -752 0
751 -752 0
-746 -751 752 0
225 -753 0
75 -753 0
-225 -75 753 0
-752 750 0
-753 750 0
752 753 -750 0
76 226 -755 0
-76 226 755 0
76 -226 755 0
-76 -226 -755 0
755 750 -376 0
-755 750 376 0
755 -750 376 0
-755 -750 -376 0
750 -756 0
755 -756 0
-750 -755 756 0
226 -757 0
76 -757 0
-226 -76 757 0
-756 754 0
-757 754 0
756 757 -754 0
77 227 -759 0
-77 227 759 0
77 -227 759 0
-77 -227 -759 0
759 754 -377 0
-759 754 377 0
759 -754 377 0
-759 -754 -377 0
754 -760 0
759 -760 0
-754 -759 760 0
227 -761 0
77 -761 0
-227 -77 761 0
-760 758 0
-761 758 0
760 761 -758 0
78 228 -763 0
-78 228 763 0
78 -228 763 0
-78 -228 -763 0
763 758 -378 0
-763 758 378 0
763 -758 378 0
-763 -758 -378 0
758 -764 0
763 -764 0
-758 -763 764 0
228 -765 0
78 -765 0
-228 -78 765 0
-764 762 0
-765 762 0
764 765 -762 0
79 229 -767 0
-79 229 767 0
79 -229 767 0
-79 -229 -767 0
767 762 -379 0
-767 762 379 0
767 -762 379 0
-767 -762 -379 0
762 -768 0
767 -768 0
-762 -767 768 0
229 -769 0
79 -769 0
-229 -79 769 0
-768 766 0
-769 766 0
768 769 -766 0
80 230 -771 0
-80 230 771 0
80 -230 771 0
-80 -230 -771 0
771 766 -380 0
-771 766 380 0
771 -766 380 0
-771 -766 -380 0
766 -772 0
771 -772 0
-766 -771 772 0
230 -773 0
80 -773 0
-230 -80 773 0
-772 770 0
-773 770 0
772 773 -770 0
81 231 -775 0
-81 231 775 0
81 -231 775 0
-81 -231 -775 0
775 770 -381 0
-775 770 381 0
775 -770 381 0
-775 -770 -381 0
770 -776 0
775 -776 0
-770 -775 776 0
231 -777 0
81 -777 0
-231 -81 777 0
-776 774 0
-777 774 0
776 777 -774 0
82 232 -779 0
-82 232 779 0
82 -232 779 0
-82 -232 -779 0
779 774 -382 0
-779 774 382 0
779 -774 382 0
-779 -774 -382 0
774 -780 0
779 -780 0
-774 -779 780 0
232 -781 0
82 -781 0
-232 -82 781 0
-780 778 0
-781 778 0
780 781 -778 0
83 233 -783 0
-83 233 783 0
83 -233 783 0
-83 -233 -783 0
783 778 -383 0
-783 778 383 0
783 -778 383 0
-783 -778 -383 0
778 -784 0
783 -784 0
-778 -783 784 0
233 -785 0
83 -785 0
-233 -83 785 0
-784 782 0
-785 782 0
784 785 -782 0
84 234 -787 0
-84 234 787 0
84 -234 787 0
-84 -234 -787 0
787 782 -384 0
-787 782 384 0
787 -782 384 0
-787 -782 -384 0
782 -788 0
787 -788 0
-782 -787 788 0
234 -789 0
84 -789 0
-234 -84 789 0
-788 786 0
-789 786 0
788 789 -786 0
85 235 -791 0
-85 235 791 0
85 -235 791 0
-85 -235 -791 0
791 786 -385 0
-791 786 385 0
791 -786 385 0
-791 -786 -385 0
786 -792 0
791 -792 0
-786 -791 792 0
235 -793 0
85 -793 0
-235 -85 793 0
-792 790 0
-793 790 0
792 793 -790 0
86 236 -795 0
-86 236 795 0
86 -236 795 0
-86 -236 -795 0
795 790 -386 0
-795 790 386 0
795 -790 386 0
-795 -790 -386 0
790 -796 0
795 -796 0
-790 -795 796 0
236 -797 0
86 -797 0
-236 -86 797 0
-796 794 0
-797 794 0
796 797 -794 0
87 237 -799 0
-87 237 799 0
87 -237 799 0
-87 -237 -799 0
799 794 -387 0
-799 794 387 0
799 -794 387 0
-799 -794 -387 0
794 -800 0
799 -800 0
-794 -799 800 0
237 -801 0
87 -801 0
-237 -87 801 0
-800 798 0
-801 798 0
800 801 -798 0
88 238 -803 0
-88 238 803 0
88 -238 803 0
-88 -238 -803 0
803 798 -388 0
-803 798 388 0
803 -798 388 0
-803 -798 -388 0
798 -804 0
803 -804 0
-798 -803 804 0
238 -805 0
88 -805 0
-238 -88 805 0
-804 802 0
-805 802 0
804 805 -802 0
89 239 -807 0
-89 239 807 0
89 -239 807 0
-89 -239 -807 0
807 802 -389 0
-807 802 389 0
807 -802 389 0
-807 -802 -389 0
802 -808 0
807 -808 0
-802 -807 808 0
239 -809 0
89 -809 0
-239 -89 809 0
-808 806 0
-809 806 0
808 809 -806 0
90 240 -811 0
-90 240 811 0
90 -240 811 0
-90 -240 -811 0
811 806 -390 0
-811 806 390 0
811 -806 390 0
-811 -806 -390 0
806 -812 0
811 -812 0
-806 -811 812 0
240 -813 0
90 -813 0
-240 -90 813 0
-812 810 0
-813 810 0
812 813 -810 0
91 241 -815 0
-91 241 815 0
91 -241 815 0
-91 -241 -815 0
815 810 -391 0
-815 810 391 0
815 -810 391 0
-815 -810 -391 0
810 -816 0
815 -816 0
-810 -815 816 0
241 -817 0
91 -817 0
-241 -91 817 0
-816 814 0
-817 814 0
816 817 -814 0
92 242 -819 0
-92 242 819 0
92 -242 819 0
-92 -242 -819 0
819 814 -392 0
-819 814 392 0
819 -814 392 0
-819 -814 -392 0
814 -820 0
819 -820 0
-814 -819 820 0
242 -821 0
92 -821 0
-242 -92 821 0
-820 818 0
-821 818 0
820 821 -818 0
93 243 -823 0
-93 243 823 0
93 -243 823 0
-93 -243 -823 0
823 818 -393 0
-823 818 393 0
823 -818 393 0
-823 -818 -393 0
818 -824 0
823 -824 0
-818 -823 824 0
243 -825 0
93 -825 0
-243 -93 825 0
-824 822 0
-825 822 0
824 825 -822 0
94 244 -827 0
-94 244 827 0
94 -244 827 0
-94 -244 -827 0
827 822 -394 0
-827 822 394 0
827 -822 394 0
-827 -822 -394 0
822 -828 0
827 -828 0
-822 -827 828 0
244 -829 0
94 -829 0
-244 -94 829 0
-828 826 0
-829 826 0
828 829 -826 0
95 245 -831 0
-95 245 831 0
95 -245 831 0
-95 -245 -831 0
831 826 -395 0
-831 826 395 0
831 -826 395 0
-831 -826 -395 0
826 -832 0
831 -832 0
-826 -831 832 0
245 -833 0
95 -833 0
-245 -95 833 0
-832 830 0
-833 830 0
832 833 -830 0
96 246 -835 0
-96 246 835 0
96 -246 835 0
-96 -246 -835 0
835 830 -396 0
-835 830 396 0
835 -830 396 0
-835 -830 -396 0
830 -836 0
835 -836 0
-830 -835 836 0
246 -837 0
96 -837 0
-246 -96 837 0
-836 834 0
-837 834 0
836 837 -834 0
97 247 -839 0
-97 247 839 0
97 -247 839 0
-97 -247 -839 0
839 834 -397 0
-839 834 397 0
839 -834 397 0
-839 -834 -397 0
834 -840 0
839 -840 0
-834 -839 840 0
247 -841 0
97 -841 0
-247 -97 841 0
-840 838 0
-841 838 0
840 841 -838 0
98 248 -843 0
-98 248 843 0
98 -248 843 0
-98 -248 -843 0
843 838 -398 0
-843 838 398 0
843 -838 398 0
-843 -838 -398 0
838 -844 0
843 -844 0
-838 -843 844 0
248 -845 0
98 -845 0
-248 -98 845 0
-844 842 0
-845 842 0
844 845 -842 0
99 249 -847 0
-99 249 847 0
99 -249 847 0
-99 -249 -847 0
847 842 -399 0
-847 842 399 0
847 -842 399 0
-847 -842 -399 0
842 -848 0
847 -848 0
-842 -847 848 0
249 -849 0
99 -849 0
-249 -99 849 0
-848 846 0
-849 846 0
848 849 -846 0
100 250 -851 0
-100 250 851 0
100 -250 851 0
-100 -250 -851 0
851 846 -400 0
-851 846 400 0
851 -846 400 0
-851 -846 -400 0
846 -852 0
851 -852 0
-846 -851 852 0
250 -853 0
100 -853 0
-250 -100 853 0
-852 850 0
-853 850 0
852 853 -850 0
101 251 -855 0
-101 251 855 0
101 -251 855 0
-101 -251 -855 0
855 850 -401 0
-855 850 401 0
855 -850 401 0
-855 -850 -401 0
850 -856 0
855 -856 0
-850 -855 856 0
251 -857 0
101 -857 0
-251 -101 857 0
-856 854 0
-857 854 0
856 857 -854 0
102 252 -859 0
-102 252 859 0
102 -252 859 0
-102 -252 -859 0
859 854 -402 0
-859 854 402 0
859 -854 402 0
-859 -854 -402 0
854 -860 0
859 -860 0
-854 -859 860 0
252 -861 0
102 -861 0
-252 -102 861 0
-860 858 0
-861 858 0
860 861 -858 0
103 253 -863 0
-103 253 863 0
103 -253 863 0
-103 -253 -863 0
863 858 -403 0
-863 858 403 0
863 -858 403 0
-863 -858 -403 0
858 -864 0
863 -864 0
-858 -863 864 0
253 -865 0
103 -865 0
-253 -103 865 0
-864 862 0
-865 862 0
864 865 -862 0
104 254 -867 0
-104 254 867 0
104 -254 867 0
-104 -254 -867 0
867 862 -404 0
-867 862 404 0
867 -862 404 0
-867 -862 -404 0
862 -868 0
867 -868 0
-862 -867 868 0
254 -869 0
104 -869 0
-254 -104 869 0
-868 866 0
-869 866 0
868 869 -866 0
105 255 -871 0
-105 255 871 0
105 -255 871 0
-105 -255 -871 0
871 866 -405 0
-871 866 405 0
871 -866 405 0
-871 -866 -405 0
866 -872 0
871 -872 0
-866 -871 872 0
255 -873 0
105 -873 0
-255 -105 873 0
-872 870 0
-873 870 0
872 873 -870 0
106 256 -875 0
-106 256 875 0
106 -256 875 0
-106 -256 -875 0
875 870 -406 0
-875 870 406 0
875 -870 406 0
-875 -870 -406 0
870 -876 0
875 -876 0
-870 -875 876 0
256 -877 0
106 -877 0
-256 -106 877 0
-876 874 0
-877 874 0
876 877 -874 0
107 257 -879 0
-107 257 879 0
107 -257 879 0
-107 -257 -879 0
879 874 -407 0
-879 874 407 0
879 -874 407 0
-879 -874 -407 0
874 -880 0
879 -880 0
-874 -879 880 0
257 -881 0
107 -881 0
-257 -107 881 0
-880 878 0
-881 878 0
880 881 -878 0
108 258 -883 0
-108 258 883 0
108 -258 883 0
-108 -258 -883 0
883 878 -408 0
-883 878 408 0
883 -878 408 0
-883 -878 -408 0
878 -884 0
883 -884 0
-878 -883 884 0
258 -885 0
108 -885 0
-258 -108 885 0
-884 882 0
-885 882 0
884 885 -882 0
109 259 -887 0
-109 259 887 0
109 -259 887 0
-109 -259 -887 0
887 882 -409 0
-887 882 409 0
887 -882 409 0
-887 -882 -409 0
882 -888 0
887 -888 0
-882 -887 888 0
259 -889 0
109 -889 0
-259 -109 889 0
-888 886 0
-889 886 0
888 889 -886 0
110 260 -891 0
-110 260 891 0
110 -260 891 0
-110 -260 -891 0
891 886 -410 0
-891 886 410 0
891 -886 410 0
-891 -886 -410 0
886 -892 0
891 -892 0
-886 -891 892 0
260 -893 0
110 -893 0
-260 -110 893 0
-892 890 0
-893 890 0
892 893 -890 0
111 261 -895 0
-111 261 895 0
111 -261 895 0
-111 -261 -895 0
895 890 -411 0
-895 890 411 0
895 -890 411 0
-895 -890 -411 0
890 -896 0
895 -896 0
-890 -895 896 0
261 -897 0
111 -897 0
-261 -111 897 0
-896 894 0
-897 894 0
896 897 -894 0
112 262 -899 0
-112 262 899 0
112 -262 899 0
-112 -262 -899 0
899 894 -412 0
-899 894 412 0
899 -894 412 0
-899 -894 -412 0
894 -900 0
899 -900 0
-894 -899 900 0
262 -901 0
112 -901 0
-262 -112 901 0
-900 898 0
-901 898 0
900 901 -898 0
113 263 -903 0
-113 263 903 0
113 -263 903 0
-113 -263 -903 0
903 898 -413 0
-903 898 413 0
903 -898 413 0
-903 -898 -413 0
898 -904 0
903 -904 0
-898 -903 904 0
263 -905 0
113 -905 0
-263 -113 905 0
-904 902 0
-905 902 0
904 905 -902 0
114 264 -907 0
-114 264 907 0
114 -264 907 0
-114 -264 -907 0
907 902 -414 0
-907 902 414 0
907 -902 414 0
-907 -902 -414 0
902 -908 0
907 -908 0
-902 -907 908 0
264 -909 0
114 -909 0
-264 -114 909 0
-908 906 0
-909 906 0
908 909 -906 0
115 265 -911 0
-115 265 911 0
115 -265 911 0
-115 -265 -911 0
911 906 -415 0
-911 906 415 0
911 -906 415 0
-911 -906 -415 0
906 -912 0
911 -912 0
-906 -911 912 0
265 -913 0
115 -913 0
-265 -115 913 0
-912 910 0
-913 910 0
912 913 -910 0
116 266 -915 0
-116 266 915 0
116 -266 915 0
-116 -266 -915 0
915 910 -416 0
-915 910 416 0
915 -910 416 0
-915 -910 -416 0
910 -916 0
915 -916 0
-910 -915 916 0
266 -917 0
116 -917 0
-266 -116 917 0
-916 914 0
-917 914 0
916 917 -914 0
117 267 -919 0
-117 267 919 0
117 -267 919 0
-117 -267 -919 0
919 914 -417 0
-919 914 417 0
919 -914 417 0
-919 -914 -417 0
914 -920 0
919 -920 0
-914 -919 920 0
267 -921 0
117 -921 0
-267 -117 921 0
-920 918 0
-921 918 0
920 921 -918 0
118 268 -923 0
-118 268 923 0
118 -268 923 0
-118 -268 -923 0
923 918 -418 0
-923 918 418 0
923 -918 418 0
-923 -918 -418 0
918 -924 0
923 -924 0
-918 -923 924 0
268 -925 0
118 -925 0
-268 -118 925 0
-924 922 0
-925 922 0
924 925 -922 0
119 269 -927 0
-119 269 927 0
119 -269 927 0
-119 -269 -927 0
927 922 -419 0
-927 922 419 0
927 -922 419 0
-927 -922 -419 0
922 -928 0
927 -928 0
-922 -927 928 0
269 -929 0
119 -929 0
-269 -119 929 0
-928 926 0
-929 926 0
928 929 -926 0
120 270 -931 0
-120 270 931 0
120 -270 931 0
-120 -270 -931 0
931 926 -420 0
-931 926 420 0
931 -926 420 0
-931 -926 -420 0
926 -932 0
931 -932 0
-926 -931 932 0
270 -933 0
120 -933 0
-270 -120 933 0
-932 930 0
-933 930 0
932 933 -930 0
121 271 -935 0
-121 271 935 0
121 -271 935 0
-121 -271 -935 0
935 930 -421 0
-935 930 421 0
935 -930 421 0
-935 -930 -421 0
930 -936 0
935 -936 0
-930 -935 936 0
271 -937 0
121 -937 0
-271 -121 937 0
-936 934 0
-937 934 0
936 937 -934 0
122 272 -939 0
-122 272 939 0
122 -272 939 0
-122 -272 -939 0
939 934 -422 0
-939 934 422 0
939 -934 422 0
-939 -934 -422 0
934 -940 0
939 -940 0
-934 -939 940 0
272 -941 0
122 -941 0
-272 -122 941 0
-940 938 0
-941 938 0
940 941 -938 0
123 273 -943 0
-123 273 943 0
123 -273 943 0
-123 -273 -943 0
943 938 -423 0
-943 938 423 0
943 -938 423 0
-943 -938 -423 0
938 -944 0
943 -944 0
-938 -943 944 0
273 -945 0
123 -945 0
-273 -123 945 0
-944 942 0
-945 942 0
944 945 -942 0
124 274 -947 0
-124 274 947 0
124 -274 947 0
-124 -274 -947 0
947 942 -424 0
-947 942 424 0
947 -942 424 0
-947 -942 -424 0
942 -948 0
947 -948 0
-942 -947 948 0
274 -949 0
124 -949 0
-274 -124 949 0
-948 946 0
-949 946 0
948 949 -946 0
125 275 -951 0
-125 275 951 0
125 -275 951 0
-125 -275 -951 0
951 946 -425 0
-951 946 425 0
951 -946 425 0
-951 -946 -425 0
946 -952 0
951 -952 0
-946 -951 952 0
275 -953 0
125 -953 0
-275 -125 953 0
-952 950 0
-953 950 0
952 953 -950 0
126 276 -955 0
-126 276 955 0
126 -276 955 0
-126 -276 -955 0
955 950 -426 0
-955 950 426 0
955 -950 426 0
-955 -950 -426 0
950 -956 0
955 -956 0
-950 -955 956 0
276 -957 0
126 -957 0
-276 -126 957 0
-956 954 0
-957 954 0
956 957 -954 0
127 277 -959 0
-127 277 959 0
127 -277 959 0
-127 -277 -959 0
959 954 -427 0
-959 954 427 0
959 -954 427 0
-959 -954 -427 0
954 -960 0
959 -960 0
-954 -959 960 0
277 -961 0
127 -961 0
-277 -127 961 0
-960 958 0
-961 958 0
960 961 -958 0
128 278 -963 0
-128 278 963 0
128 -278 963 0
-128 -278 -963 0
963 958 -428 0
-963 958 428 0
963 -958 428 0
-963 -958 -428 0
958 -964 0
963 -964 0
-958 -963 964 0
278 -965 0
128 -965 0
-278 -128 965 0
-964 962 0
-965 962 0
964 965 -962 0
129 279 -967 0
-129 279 967 0
129 -279 967 0
-129 -279 -967 0
967 962 -429 0
-967 962 429 0
967 -962 429 0
-967 -962 -429 0
962 -968 0
967 -968 0
-962 -967 968 0
279 -969 0
129 -969 0
-279 -129 969 0
-968 966 0
-969 966 0
968 969 -966 0
130 280 -971 0
-130 280 971 0
130 -280 971 0
-130 -280 -971 0
971 966 -430 0
-971 966 430 0
971 -966 430 0
-971 -966 -430 0
966 -972 0
971 -972 0
-966 -971 972 0
280 -973 0
130 -973 0
-280 -130 973 0
-972 970 0
-973 970 0
972 973 -970 0
131 281 -975 0
-131 281 975 0
131 -281 975 0
-131 -281 -975 0
975 970 -431 0
-975 970 431 0
975 -970 431 0
-975 -970 -431 0
970 -976 0
975 -976 0
-970 -975 976 0
281 -977 0
131 -977 0
-281 -131 977 0
-976 974 0
-977 974 0
976 977 -974 0
132 282 -979 0
-132 282 979 0
132 -282 979 0
-132 -282 -979 0
979 974 -432 0
-979 974 432 0
979 -974 432 0
-979 -974 -432 0
974 -980 0
979 -980 0
-974 -979 980 0
282 -981 0
132 -981 0
-282 -132 981 0
-980 978 0
-981 978 0
980 981 -978 0
133 283 -983 0
-133 283 983 0
133 -283 983 0
-133 -283 -983 0
983 978 -433 0
-983 978 433 0
983 -978 433 0
-983 -978 -433 0
978 -984 0
983 -984 0
-978 -983 984 0
283 -985 0
133 -985 0
-283 -133 985 0
-984 982 0
-985 982 0
984 985 -982 0
134 284 -987 0
-134 284 987 0
134 -284 987 0
-134 -284 -987 0
987 982 -434 0
-987 982 434 0
987 -982 434 0
-987 -982 -434 0
982 -988 0
987 -988 0
-982 -987 988 0
284 -989 0
134 -989 0
-284 -134 989 0
-988 986 0
-989 986 0
988 989 -986 0
135 285 -991 0
-135 285 991 0
135 -285 991 0
-135 -285 -991 0
991 986 -435 0
-991 986 435 0
991 -986 435 0
-991 -986 -435 0
986 -992 0
991 -992 0
-986 -991 992 0
285 -993 0
135 -993 0
-285 -135 993 0
-992 990 0
-993 990 0
992 993 -990 0
136 286 -995 0
-136 286 995 0
136 -286 995 0
-136 -286 -995 0
995 990 -436 0
-995 990 436 0
995 -990 436 0
-995 -990 -436 0
990 -996 0
995 -996 0
-990 -995 996 0
286 -997 0
136 -997 0
-286 -136 997 0
-996 994 0
-997 994 0
996 997 -994 0
137 287 -999 0
-137 287 999 0
137 -287 999 0
-137 -287 -999 0
999 994 -437 0
-999 994 437 0
999 -994 437 0
-999 -994 -437 0
994 -1000 0
999 -1000 0
-994 -999 1000 0
287 -1001 0
137 -1001 0
-287 -137 1001 0
-1000 998 0
-1001 998 0
1000 1001 -998 0
138 288 -1003 0
-138 288 1003 0
138 -288 1003 0
-138 -288 -1003 0
1003 998 -438 0
-1003 998 438 0
1003 -998 438 0
-1003 -998 -438 0
998 -1004 0
1003 -1004 0
-998 -1003 1004 0
288 -1005 0
138 -1005 0
-288 -138 1005 0
-1004 1002 0
-1005 1002 0
1004 1005 -1002 0
139 289 -1007 0
-139 289 1007 0
139 -289 1007 0
-139 -289 -1007 0
1007 1002 -439 0
-1007 1002 439 0
1007 -1002 439 0
-1007 -1002 -439 0
1002 -1008 0
1007 -1008 0
-1002 -1007 1008 0
289 -1009 0
139 -1009 0
-289 -139 1009 0
-1008 1006 0
-1009 1006 0
1008 1009 -1006 0
140 290 -1011 0
-140 290 1011 0
140 -290 1011 0
-140 -290 -1011 0
1011 1006 -440 0
-1011 1006 440 0
1011 -1006 440 0
-1011 -1006 -440 0
1006 -1012 0
1011 -1012 0
-1006 -1011 1012 0
290 -1013 0
140 -1013 0
-290 -140 1013 0
-1012 1010 0
-1013 1010 0
1012 1013 -1010 0
141 291 -1015 0
-141 291 1015 0
141 -291 1015 0
-141 -291 -1015 0
1015 1010 -441 0
-1015 1010 441 0
1015 -1010 441 0
-1015 -1010 -441 0
1010 -1016 0
1015 -1016 0
-1010 -1015 1016 0
291 -1017 0
141 -1017 0
-291 -141 1017 0
-1016 1014 0
-1017 1014 0
1016 1017 -1014 0
142 292 -1019 0
-142 292 1019 0
142 -292 1019 0
-142 -292 -1019 0
1019 1014 -442 0
-1019 1014 442 0
1019 -1014 442 0
-1019 -1014 -442 0
1014 -1020 0
1019 -1020 0
-1014 -1019 1020 0
292 -1021 0
142 -1021 0
-292 -142 1021 0
-1020 1018 0
-1021 1018 0
1020 1021 -1018 0
143 293 -1023 0
-143 293 1023 0
143 -293 1023 0
-143 -293 -1023 0
1023 1018 -443 0
-1023 1018 443 0
1023 -1018 443 0
-1023 -1018 -443 0
1018 -1024 0
1023 -1024 0
-1018 -1023 1024 0
293 -1025 0
143 -1025 0
-293 -143 1025 0
-1024 1022 0
-1025 1022 0
1024 1025 -1022 0
144 294 -1027 0
-144 294 1027 0
144 -294 1027 0
-144 -294 -1027 0
1027 1022 -444 0
-1027 1022 444 0
1027 -1022 444 0
-1027 -1022 -444 0
1022 -1028 0
1027 -1028 0
-1022 -1027 1028 0
294 -1029 0
144 -1029 0
-294 -144 1029 0
-1028 1026 0
-1029 1026 0
1028 1029 -1026 0
145 295 -1031 0
-145 295 1031 0
145 -295 1031 0
-145 -295 -1031 0
1031 1026 -445 0
-1031 1026 445 0
1031 -1026 445 0
-1031 -1026 -445 0
1026 -1032 0
1031 -1032 0
-1026 -1031 1032 0
295 -1033 0
145 -1033 0
-295 -145 1033 0
-1032 1030 0
-1033 1030 0
1032 1033 -1030 0
146 296 -1035 0
-146 296 1035 0
146 -296 1035 0
-146 -296 -1035 0
1035 1030 -446 0
-1035 1030 446 0
1035 -1030 446 0
-1035 -1030 -446 0
1030 -1036 0
1035 -1036 0
-1030 -1035 1036 0
296 -1037 0
146 -1037 0
-296 -146 1037 0
-1036 1034 0
-1037 1034 0
1036 1037 -1034 0
147 297 -1039 0
-147 297 1039 0
147 -297 1039 0
-147 -297 -1039 0
1039 1034 -447 0
-1039 1034 447 0
1039 -1034 447 0
-1039 -1034 -447 0
1034 -1040 0
1039 -1040 0
-1034 -1039 1040 0
297 -1041 0
147 -1041 0
-297 -147 1041 0
-1040 1038 0
-1041 1038 0
1040 1041 -1038 0
148 298 -1043 0
-148 298 1043 0
148 -298 1043 0
-148 -298 -1043 0
1043 1038 -448 0
-1043 1038 448 0
1043 -1038 448 0
-1043 -1038 -448 0
1038 -1044 0
1043 -1044 0
-1038 -1043 1044 0
298 -1045 0
148 -1045 0
-298 -148 1045 0
-1044 1042 0
-1045 1042 0
1044 1045 -1042 0
149 299 -1047 0
-149 299 1047 0
149 -299 1047 0
-149 -299 -1047 0
1047 1042 -449 0
-1047 1042 449 0
1047 -1042 449 0
-1047 -1042 -449 0
1042 -1048 0
1047 -1048 0
-1042 -1047 1048 0
299 -1049 0
149 -1049 0
-299 -149 1049 0
-1048 1046 0
-1049 1046 0
1048 1049 -1046 0
150 300 -1050 0
-150 300 1050 0
150 -300 1050 0
-150 -300 -1050 0
1050 1046 -450 0
-1050 1046 450 0
1050 -1046 450 0
-1050 -1046 -450 0
1046 -1051 0
1050 -1051 0
-1046 -1050 1051 0
300 -1052 0
150 -1052 0
-300 -150 1052 0
-1051 451 0
-1052 451 0
1051 1052 -451 0
